c description: Random 3-CNF over 22 variables and 94 clauses
c generator: CNFgen (0.9.2)
c copyright: (C) 2012-2022 Massimo Lauria <massimo.lauria@uniroma1.it>
c url: https://massimolauria.net/cnfgen
c command line: cnfgen --output CNF_4.28/22_bit_94_289.cnf randkcnf 3 22 94
c
p cnf 22 94
-3 10 11 0
-11 -15 -17 0
3 -12 14 0
-10 -14 -20 0
-17 19 21 0
11 13 -22 0
1 -4 5 0
-7 13 21 0
-2 6 11 0
-3 -12 -19 0
6 8 -16 0
-1 5 12 0
-13 -21 -22 0
3 -6 15 0
-6 17 -21 0
-13 -18 -22 0
-3 6 19 0
8 -12 -16 0
2 3 -10 0
2 5 -14 0
-3 9 10 0
1 14 15 0
-2 8 -17 0
2 4 -12 0
8 16 22 0
-7 -10 18 0
-2 7 -22 0
-6 17 -18 0
5 -6 -8 0
-10 -11 21 0
1 -8 -19 0
10 -16 17 0
12 18 -19 0
-2 -7 18 0
4 15 -20 0
-2 -19 21 0
-5 -11 22 0
1 -2 -3 0
4 9 16 0
-6 12 -18 0
8 -10 -12 0
5 -6 12 0
4 -6 -21 0
1 6 10 0
1 -2 21 0
-8 -20 -21 0
-10 19 -20 0
-14 16 -18 0
-1 5 -7 0
-6 16 -20 0
-6 -15 -19 0
4 -6 21 0
7 -16 18 0
-6 8 17 0
2 16 -19 0
-1 -5 -14 0
-11 -12 -14 0
5 -6 20 0
8 -14 -15 0
2 -4 11 0
8 10 20 0
-5 -18 20 0
4 10 -16 0
-3 -11 22 0
5 -12 14 0
5 16 -20 0
4 10 15 0
4 7 20 0
-6 -20 21 0
-5 7 -10 0
-6 17 19 0
-7 11 21 0
17 -19 -21 0
1 -10 14 0
-2 3 22 0
-1 -8 -22 0
4 15 21 0
-6 -21 22 0
-1 3 14 0
1 9 20 0
-1 -7 -9 0
-3 20 -21 0
-5 11 17 0
-10 16 18 0
16 -21 -22 0
-14 17 22 0
-1 -8 -13 0
-1 -10 16 0
1 -12 17 0
2 -10 18 0
6 -18 19 0
4 5 20 0
-5 -11 13 0
2 -3 17 0
